/* Objective function */
min: c;

c=1 x1_0+2 x1_1+2 x2_1+4 x1_2+ 4 x2_2+8 x1_3+ 8 x2_3+16 x1_4+16 x2_4+32 x1_5;
x1_0+x1_1+x1_2+x1_3+x1_4+x1_5=4;
x2_1+x2_2+x2_3+x2_4=5;
0<=x1_0<=1;
0<=x1_1<=1;
0<=x1_2<=1;
0<=x1_3<=1;
0<=x1_4<=1;
0<=x1_5<=1;
0<=x2_1<=2;
0<=x2_2<=2;
0<=x2_3<=2;
0<=x2_4<=2;

/* Variable bounds */